language ESSENCE' 1.0
$ loaded file: carseqdata/csplib-instance-61
letting numcars=200
letting numclasses=26
letting numoptions=5
letting optMax=[1, 2, 1, 2, 1]
letting windowSize=[2, 3, 3, 5, 5]
letting numberPerClass=[3, 8, 39, 8, 6, 10, 3, 8, 12, 2, 3, 22, 8, 14, 2, 3, 4, 1, 2, 1, 2, 4, 14, 1, 4, 16]
letting optionsRequired=[[0, 1, 0, 1, 1], [0, 0, 0, 0, 1], [0, 1, 0, 0, 0], [0, 1, 1, 0, 0], [1, 0, 1, 0, 1], [1, 1, 0, 1, 0], [0, 1, 1, 0, 1], [1, 0, 1, 0, 0], [0, 0, 1, 0, 0], [0, 0, 1, 1, 1], [1, 1, 1, 1, 0], [1, 1, 0, 0, 0], [1, 0, 0, 1, 0], [0, 1, 0, 1, 0], [1, 1, 1, 0, 0], [0, 0, 0, 1, 1], [0, 1, 0, 0, 1], [1, 0, 0, 1, 1], [1, 1, 0, 0, 1], [0, 0, 1, 0, 1], [0, 0, 1, 1, 0], [1, 0, 1, 1, 0], [0, 0, 0, 0, 0], [1, 0, 0, 0, 1], [0, 1, 1, 0, 0], [1, 0, 0, 0, 0]]
